Route #1: 1 6 37 41 17 11 18 3 39 35 44 1
Route #2: 1 32 33 38 13 9 28 42 1
Route #3: 1 19 40 30 14 1
Route #4: 1 36 4 20 34 49 12 5 1
Route #5: 1 7 8 29 27 15 43 1
Route #6: 1 31 25 23 47 26 46 48 24 51 1
Route #7: 1 16 10 50 21 2 45 22 1
cost 1059.73133996366